Results/Experiment 1 Results/New Benchmark/RES_20/output_p1_0.75_p2_0.00_n_20_16.txt
solutions: 0 nodes: 0  modelTime: 121  solveTime: 9  totalTime: 132  modelSize: 7358  readTime: 2 matchingSize: 0
